11,8	0,0	17,1	14,6	0,0	0,0	0,0	0,0	0,0	16,5
15,0	5,2	0,0	9,6	6,9	0,0	0,0	11,3	0,0	0,0
0,0	0,0	19,3	0,0	12,1	7,5	0,0	0,0	19,9	0,0
13,1	0,0	13,3	0,0	0,0	0,0	11,9	0,0	0,0	0,0
0,0	19,1	0,0	10,1	11,6	0,0	0,0	12,4	0,0	0,0
0,0	16,3	7,1	0,0	18,2	11,2	0,0	0,0	5,9	0,0
0,0	5,7	0,0	16,0	0,0	0,0	13,0	0,0	0,0	15,3
7,1	0,0	10,0	0,0	0,0	0,0	0,0	0,0	0,0	19,2
0,0	13,9	0,0	5,8	5,2	0,0	0,0	18,7	0,0	0,0
0,0	0,0	13,6	0,0	0,0	15,6	13,6	0,0	0,0	6,9
									
4,6	3,6	3,9	3,2	3,9	2,8	4,8	4,7	3,9	3,8
